c Command line: hgen8 205 70
p cnf 205 314
183 43 163 72 0
15 118 173 67 0
105 131 101 58 0
74 126 133 10 0
120 147 199 181 0
2 103 196 98 0
87 159 42 205 0
57 13 56 3 0
52 139 168 39 0
86 28 117 7 0
156 132 9 142 0
37 94 130 26 0
78 51 47 171 0
112 36 97 35 0
128 179 123 85 0
137 160 189 166 0
24 90 108 55 0
170 169 150 49 0
111 71 125 80 0
59 64 45 70 0
151 69 76 164 0
8 198 175 63 0
182 12 44 89 0
83 50 48 102 0
40 81 110 143 0
34 99 145 162 0
186 138 124 121 0
14 180 127 172 0
17 54 46 188 0
5 25 109 148 0
158 33 22 75 0
204 30 191 195 0
106 152 29 18 0
91 31 184 20 0
1 4 41 23 0
88 100 178 144 0
200 95 114 174 0
157 154 93 65 0
140 84 122 146 0
82 176 187 165 0
60 116 134 79 0
177 61 104 38 0
-1 -2 0
-1 -3 0
-1 -4 0
-1 -5 0
-2 -3 0
-2 -4 0
-2 -5 0
-3 -4 0
-3 -5 0
-4 -5 0
-7 -8 0
-7 -9 0
-7 -10 0
-8 -9 0
-8 -10 0
-9 -10 0
-12 -13 0
-12 -14 0
-12 -15 0
-13 -14 0
-13 -15 0
-14 -15 0
-17 -18 0
-17 -20 0
-18 -20 0
-22 -23 0
-22 -24 0
-22 -25 0
-23 -24 0
-23 -25 0
-24 -25 0
-26 -28 0
-26 -29 0
-26 -30 0
-28 -29 0
-28 -30 0
-29 -30 0
-31 -33 0
-31 -34 0
-31 -35 0
-33 -34 0
-33 -35 0
-34 -35 0
-36 -37 0
-36 -38 0
-36 -39 0
-36 -40 0
-37 -38 0
-37 -39 0
-37 -40 0
-38 -39 0
-38 -40 0
-39 -40 0
-41 -42 0
-41 -43 0
-41 -44 0
-41 -45 0
-42 -43 0
-42 -44 0
-42 -45 0
-43 -44 0
-43 -45 0
-44 -45 0
-46 -47 0
-46 -48 0
-46 -49 0
-46 -50 0
-47 -48 0
-47 -49 0
-47 -50 0
-48 -49 0
-48 -50 0
-49 -50 0
-51 -52 0
-51 -54 0
-51 -55 0
-52 -54 0
-52 -55 0
-54 -55 0
-56 -57 0
-56 -58 0
-56 -59 0
-56 -60 0
-57 -58 0
-57 -59 0
-57 -60 0
-58 -59 0
-58 -60 0
-59 -60 0
-61 -63 0
-61 -64 0
-61 -65 0
-63 -64 0
-63 -65 0
-64 -65 0
-67 -69 0
-67 -70 0
-69 -70 0
-71 -72 0
-71 -74 0
-71 -75 0
-72 -74 0
-72 -75 0
-74 -75 0
-76 -78 0
-76 -79 0
-76 -80 0
-78 -79 0
-78 -80 0
-79 -80 0
-81 -82 0
-81 -83 0
-81 -84 0
-81 -85 0
-82 -83 0
-82 -84 0
-82 -85 0
-83 -84 0
-83 -85 0
-84 -85 0
-86 -87 0
-86 -88 0
-86 -89 0
-86 -90 0
-87 -88 0
-87 -89 0
-87 -90 0
-88 -89 0
-88 -90 0
-89 -90 0
-91 -93 0
-91 -94 0
-91 -95 0
-93 -94 0
-93 -95 0
-94 -95 0
-97 -98 0
-97 -99 0
-97 -100 0
-98 -99 0
-98 -100 0
-99 -100 0
-101 -102 0
-101 -103 0
-101 -104 0
-101 -105 0
-102 -103 0
-102 -104 0
-102 -105 0
-103 -104 0
-103 -105 0
-104 -105 0
-106 -108 0
-106 -109 0
-106 -110 0
-108 -109 0
-108 -110 0
-109 -110 0
-111 -112 0
-111 -114 0
-112 -114 0
-116 -117 0
-116 -118 0
-116 -120 0
-117 -118 0
-117 -120 0
-118 -120 0
-121 -122 0
-121 -123 0
-121 -124 0
-121 -125 0
-122 -123 0
-122 -124 0
-122 -125 0
-123 -124 0
-123 -125 0
-124 -125 0
-126 -127 0
-126 -128 0
-126 -130 0
-127 -128 0
-127 -130 0
-128 -130 0
-131 -132 0
-131 -133 0
-131 -134 0
-132 -133 0
-132 -134 0
-133 -134 0
-137 -138 0
-137 -139 0
-137 -140 0
-138 -139 0
-138 -140 0
-139 -140 0
-142 -143 0
-142 -144 0
-142 -145 0
-143 -144 0
-143 -145 0
-144 -145 0
-146 -147 0
-146 -148 0
-146 -150 0
-147 -148 0
-147 -150 0
-148 -150 0
-151 -152 0
-151 -154 0
-152 -154 0
-156 -157 0
-156 -158 0
-156 -159 0
-156 -160 0
-157 -158 0
-157 -159 0
-157 -160 0
-158 -159 0
-158 -160 0
-159 -160 0
-162 -163 0
-162 -164 0
-162 -165 0
-163 -164 0
-163 -165 0
-164 -165 0
-166 -168 0
-166 -169 0
-166 -170 0
-168 -169 0
-168 -170 0
-169 -170 0
-171 -172 0
-171 -173 0
-171 -174 0
-171 -175 0
-172 -173 0
-172 -174 0
-172 -175 0
-173 -174 0
-173 -175 0
-174 -175 0
-176 -177 0
-176 -178 0
-176 -179 0
-176 -180 0
-177 -178 0
-177 -179 0
-177 -180 0
-178 -179 0
-178 -180 0
-179 -180 0
-181 -182 0
-181 -183 0
-181 -184 0
-182 -183 0
-182 -184 0
-183 -184 0
-186 -187 0
-186 -188 0
-186 -189 0
-187 -188 0
-187 -189 0
-188 -189 0
-191 -195 0
-196 -198 0
-196 -199 0
-196 -200 0
-198 -199 0
-198 -200 0
-199 -200 0
-204 -205 0
